(set-logic SLHV)
(declare-hvar emp IntHeap)
(declare-locvar nil IntLoc)
(declare-datatype pt_record_0 ((Pt_R_0 (loc IntLoc))))
(declare-datatype pt_record_1 ((Pt_R_1 (data Int))))
(declare-const d32 Int)
(declare-locvar l19 IntLoc)
(declare-hvar ah9 IntHeap)
(declare-hvar AH_5 IntHeap)
(declare-const d31 Int)
(declare-locvar l17 IntLoc)
(declare-hvar h11 IntHeap)
(declare-hvar H_5 IntHeap)
(declare-locvar l18 IntLoc)
(declare-const loc_5 Int)
(declare-hvar H_4 IntHeap)
(declare-hvar AH_4 IntHeap)
(declare-const $i8_foo0_4 Int)
(declare-const $i8_foo0_5 Int)
(declare-const $i7_main0_4 Int)
(declare-const $i7_main0_5 Int)
(declare-const $i7_foo0_4 Int)
(declare-const $i7_foo0_5 Int)
(declare-const $i6_main0_4 Int)
(declare-const $i6_main0_5 Int)
(declare-const $i6_foo0_4 Int)
(declare-const $i6_foo0_5 Int)
(declare-const $i5_main0_4 Int)
(declare-const $i5_main0_5 Int)
(declare-const $i4_foo0_4 Int)
(declare-const $i4_foo0_5 Int)
(declare-const $i2_main0_4 Int)
(declare-const $i2_main0_5 Int)
(declare-const $i2_foo0_4 Int)
(declare-const $i2_foo0_5 Int)
(declare-const $i1_main0_4 Int)
(declare-const $i1_main0_5 Int)
(declare-const $i1_foo0_4 Int)
(declare-const $i1_foo0_5 Int)
(declare-const $i15_main0_4 Int)
(declare-const $i15_main0_5 Int)
(declare-const $i14_main0_4 Int)
(declare-const $i14_main0_5 Int)
(declare-const $i0_main0_4 Int)
(declare-const $i0_main0_5 Int)
(declare-const $i0_foo0_4 Int)
(declare-const $i0_foo0_5 Int)
(declare-const $M.0_4 Int)
(declare-const $M.0_5 Int)
(declare-locvar $p9_main0_4 IntLoc)
(declare-locvar $p9_main0_5 IntLoc)
(declare-locvar $p8_main0_4 IntLoc)
(declare-locvar $p8_main0_5 IntLoc)
(declare-locvar $p5_foo0_4 IntLoc)
(declare-locvar $p5_foo0_5 IntLoc)
(declare-locvar $p4_main0_4 IntLoc)
(declare-locvar $p4_main0_5 IntLoc)
(declare-locvar $p3_main0_4 IntLoc)
(declare-locvar $p3_main0_5 IntLoc)
(declare-locvar $p3_foo0_4 IntLoc)
(declare-locvar $p3_foo0_5 IntLoc)
(declare-locvar $p24_main0_4 IntLoc)
(declare-locvar $p24_main0_5 IntLoc)
(declare-locvar $p23_main0_4 IntLoc)
(declare-locvar $p23_main0_5 IntLoc)
(declare-locvar $p22_main0_4 IntLoc)
(declare-locvar $p22_main0_5 IntLoc)
(declare-locvar $p21_main0_4 IntLoc)
(declare-locvar $p21_main0_5 IntLoc)
(declare-locvar $p20_main0_4 IntLoc)
(declare-locvar $p20_main0_5 IntLoc)
(declare-locvar $p19_main0_4 IntLoc)
(declare-locvar $p19_main0_5 IntLoc)
(declare-locvar $p18_main0_4 IntLoc)
(declare-locvar $p18_main0_5 IntLoc)
(declare-locvar $p17_main0_4 IntLoc)
(declare-locvar $p17_main0_5 IntLoc)
(declare-locvar $p16_main0_4 IntLoc)
(declare-locvar $p16_main0_5 IntLoc)
(declare-locvar $p13_main0_4 IntLoc)
(declare-locvar $p13_main0_5 IntLoc)
(declare-locvar $p12_main0_4 IntLoc)
(declare-locvar $p12_main0_5 IntLoc)
(declare-locvar $p11_main0_4 IntLoc)
(declare-locvar $p11_main0_5 IntLoc)
(declare-locvar $p10_main0_4 IntLoc)
(declare-locvar $p10_main0_5 IntLoc)
(declare-locvar $M.3_4 IntLoc)
(declare-locvar $M.3_5 IntLoc)
(declare-locvar $M.1_4 IntLoc)
(declare-locvar $M.1_5 IntLoc)
(declare-const $r_main01_5 Int)
(declare-const $r_main0_5 Int)
(declare-const loc_4 Int)
(declare-const $r_main0_4 Int)
(declare-locvar $p13_main01_5 IntLoc)
(declare-locvar $p12_main01_5 IntLoc)
(declare-const $i15_main01_5 Int)
(declare-const $i14_main01_5 Int)
(declare-const d9_5 Int)
(declare-hvar h5_5 IntHeap)
(declare-hvar H4_5 IntHeap)
(declare-locvar $p5_foo01_5 IntLoc)
(declare-locvar $p3_foo01_5 IntLoc)
(declare-const $i8_foo01_5 Int)
(declare-const $i7_foo01_5 Int)
(declare-const $i6_foo01_5 Int)
(declare-const $i4_foo01_5 Int)
(declare-hvar h3_5 IntHeap)
(declare-const d7_5 Int)
(declare-const $r_main0_3 Int)
(declare-const $i8_foo0_3 Int)
(declare-const $i7_main0_3 Int)
(declare-const $i7_foo0_3 Int)
(declare-const $i6_main0_3 Int)
(declare-const $i6_foo0_3 Int)
(declare-const $i5_main0_3 Int)
(declare-const $i4_foo0_3 Int)
(declare-const $i2_main0_3 Int)
(declare-const $i2_foo0_3 Int)
(declare-const $i1_main0_3 Int)
(declare-const $i1_foo0_3 Int)
(declare-const $i15_main0_3 Int)
(declare-const $i14_main0_3 Int)
(declare-const $i0_main0_3 Int)
(declare-const $i0_foo0_3 Int)
(declare-const $M.0_3 Int)
(declare-locvar $p9_main0_3 IntLoc)
(declare-locvar $p8_main0_3 IntLoc)
(declare-locvar $p5_foo0_3 IntLoc)
(declare-locvar $p4_main0_3 IntLoc)
(declare-locvar $p3_main0_3 IntLoc)
(declare-locvar $p3_foo0_3 IntLoc)
(declare-locvar $p19_main0_3 IntLoc)
(declare-locvar $p18_main0_3 IntLoc)
(declare-locvar $p17_main0_3 IntLoc)
(declare-locvar $p16_main0_3 IntLoc)
(declare-locvar $p13_main0_3 IntLoc)
(declare-locvar $p12_main0_3 IntLoc)
(declare-locvar $p11_main0_3 IntLoc)
(declare-locvar $p10_main0_3 IntLoc)
(declare-locvar $M.3_3 IntLoc)
(declare-locvar $M.1_3 IntLoc)
(declare-hvar H8_4 IntHeap)
(declare-hvar AH6_4 IntHeap)
(declare-locvar $p24_main01_4 IntLoc)
(declare-locvar $p23_main01_4 IntLoc)
(declare-locvar $p22_main01_4 IntLoc)
(declare-locvar $p21_main01_4 IntLoc)
(declare-locvar $p20_main01_4 IntLoc)
(declare-hvar h10_4 IntHeap)
(declare-locvar l16_4 IntLoc)
(declare-const d29_4 Int)
(declare-hvar H7_4 IntHeap)
(declare-const d26_4 Int)
(declare-locvar l14_4 IntLoc)
(declare-const d28_4 Int)
(declare-locvar l15_4 IntLoc)
(declare-const d27_4 Int)
(declare-hvar ah7 IntHeap)
(declare-hvar AH5_4 IntHeap)
(declare-hvar h9_4 IntHeap)
(declare-locvar l13_4 IntLoc)
(declare-const d24_4 Int)
(declare-hvar H_3 IntHeap)
(declare-const d21_4 Int)
(declare-locvar l11_4 IntLoc)
(declare-const d23_4 Int)
(declare-locvar l12_4 IntLoc)
(declare-const d22_4 Int)
(declare-hvar ah5 IntHeap)
(declare-hvar AH_3 IntHeap)
(declare-const loc_3 Int)
(declare-locvar $p24_main0_3 IntLoc)
(declare-locvar $p23_main0_3 IntLoc)
(declare-locvar $p22_main0_3 IntLoc)
(declare-locvar $p21_main0_3 IntLoc)
(declare-locvar $p20_main0_3 IntLoc)
(declare-hvar H6_4 IntHeap)
(declare-hvar AH4_4 IntHeap)
(declare-locvar $p19_main01_4 IntLoc)
(declare-locvar $p18_main01_4 IntLoc)
(declare-locvar $p17_main01_4 IntLoc)
(declare-locvar $p16_main01_4 IntLoc)
(declare-hvar h8_4 IntHeap)
(declare-locvar l10_4 IntLoc)
(declare-const d19_4 Int)
(declare-hvar H5_4 IntHeap)
(declare-const d16_4 Int)
(declare-locvar l8_4 IntLoc)
(declare-const d18_4 Int)
(declare-locvar l9_4 IntLoc)
(declare-const d17_4 Int)
(declare-hvar ah3 IntHeap)
(declare-hvar AH3_4 IntHeap)
(declare-hvar h7_4 IntHeap)
(declare-locvar l7_4 IntLoc)
(declare-const d14_4 Int)
(declare-const d11_4 Int)
(declare-locvar l5_4 IntLoc)
(declare-const d13_4 Int)
(declare-locvar l6_4 IntLoc)
(declare-const d12_4 Int)
(declare-hvar ah1 IntHeap)
(declare-const $i2_foo02_4 Int)
(declare-hvar H_2 IntHeap)
(declare-hvar AH_2 IntHeap)
(declare-const $r_main0_2 Int)
(declare-const $i8_foo0_2 Int)
(declare-const $i7_main0_2 Int)
(declare-const $i7_foo0_2 Int)
(declare-const $i6_main0_2 Int)
(declare-const $i6_foo0_2 Int)
(declare-const $i5_main0_2 Int)
(declare-const $i4_foo0_2 Int)
(declare-const $i2_main0_2 Int)
(declare-const $i2_foo0_2 Int)
(declare-const $i1_main0_2 Int)
(declare-const $i1_foo0_2 Int)
(declare-const $i0_main0_2 Int)
(declare-const $i0_foo0_2 Int)
(declare-const $M.0_2 Int)
(declare-locvar $p9_main0_2 IntLoc)
(declare-locvar $p8_main0_2 IntLoc)
(declare-locvar $p5_foo0_2 IntLoc)
(declare-locvar $p4_main0_2 IntLoc)
(declare-locvar $p3_main0_2 IntLoc)
(declare-locvar $p3_foo0_2 IntLoc)
(declare-locvar $p24_main0_2 IntLoc)
(declare-locvar $p23_main0_2 IntLoc)
(declare-locvar $p22_main0_2 IntLoc)
(declare-locvar $p21_main0_2 IntLoc)
(declare-locvar $p20_main0_2 IntLoc)
(declare-locvar $p19_main0_2 IntLoc)
(declare-locvar $p18_main0_2 IntLoc)
(declare-locvar $p17_main0_2 IntLoc)
(declare-locvar $p16_main0_2 IntLoc)
(declare-locvar $p11_main0_2 IntLoc)
(declare-locvar $p10_main0_2 IntLoc)
(declare-locvar $M.3_2 IntLoc)
(declare-locvar $M.1_2 IntLoc)
(declare-locvar $p13_main01_3 IntLoc)
(declare-locvar $p12_main01_3 IntLoc)
(declare-const $i15_main01_3 Int)
(declare-const $i14_main01_3 Int)
(declare-const d9_3 Int)
(declare-hvar h5_3 IntHeap)
(declare-const loc_2 Int)
(declare-const $i15_main0_2 Int)
(declare-const $i14_main0_2 Int)
(declare-locvar $p13_main0_2 IntLoc)
(declare-locvar $p12_main0_2 IntLoc)
(declare-hvar H4_3 IntHeap)
(declare-locvar $p5_foo01_3 IntLoc)
(declare-locvar $p3_foo01_3 IntLoc)
(declare-const $i8_foo01_3 Int)
(declare-const $i7_foo01_3 Int)
(declare-const $i6_foo01_3 Int)
(declare-const $i4_foo01_3 Int)
(declare-hvar h3_3 IntHeap)
(declare-const d7_3 Int)
(declare-hvar H_1 IntHeap)
(declare-hvar AH_1 IntHeap)
(declare-const $r_main0_1 Int)
(declare-const $i8_foo0_1 Int)
(declare-const $i7_main0_1 Int)
(declare-const $i7_foo0_1 Int)
(declare-const $i6_main0_1 Int)
(declare-const $i6_foo0_1 Int)
(declare-const $i5_main0_1 Int)
(declare-const $i4_foo0_1 Int)
(declare-const $i2_main0_1 Int)
(declare-const $i2_foo0_1 Int)
(declare-const $i1_main0_1 Int)
(declare-const $i1_foo0_1 Int)
(declare-const $i15_main0_1 Int)
(declare-const $i14_main0_1 Int)
(declare-const $i0_main0_1 Int)
(declare-const $i0_foo0_1 Int)
(declare-const $M.0_1 Int)
(declare-locvar $p9_main0_1 IntLoc)
(declare-locvar $p8_main0_1 IntLoc)
(declare-locvar $p5_foo0_1 IntLoc)
(declare-locvar $p4_main0_1 IntLoc)
(declare-locvar $p3_main0_1 IntLoc)
(declare-locvar $p3_foo0_1 IntLoc)
(declare-locvar $p24_main0_1 IntLoc)
(declare-locvar $p23_main0_1 IntLoc)
(declare-locvar $p22_main0_1 IntLoc)
(declare-locvar $p21_main0_1 IntLoc)
(declare-locvar $p20_main0_1 IntLoc)
(declare-locvar $p19_main0_1 IntLoc)
(declare-locvar $p18_main0_1 IntLoc)
(declare-locvar $p17_main0_1 IntLoc)
(declare-locvar $p16_main0_1 IntLoc)
(declare-locvar $p13_main0_1 IntLoc)
(declare-locvar $p12_main0_1 IntLoc)
(declare-locvar $p11_main0_1 IntLoc)
(declare-locvar $p10_main0_1 IntLoc)
(declare-locvar $M.3_1 IntLoc)
(declare-locvar $M.1_1 IntLoc)
(declare-const loc_1 Int)
(declare-const $i2_foo01_2 Int)
(declare-const $r_main0_0 Int)
(declare-const $i8_foo0_0 Int)
(declare-const $i7_foo0_0 Int)
(declare-const $i6_foo0_0 Int)
(declare-const $i4_foo0_0 Int)
(declare-const $i2_foo0_0 Int)
(declare-const $i15_main0_0 Int)
(declare-const $i14_main0_0 Int)
(declare-locvar $p5_foo0_0 IntLoc)
(declare-locvar $p3_foo0_0 IntLoc)
(declare-locvar $p24_main0_0 IntLoc)
(declare-locvar $p23_main0_0 IntLoc)
(declare-locvar $p22_main0_0 IntLoc)
(declare-locvar $p21_main0_0 IntLoc)
(declare-locvar $p20_main0_0 IntLoc)
(declare-locvar $p19_main0_0 IntLoc)
(declare-locvar $p18_main0_0 IntLoc)
(declare-locvar $p17_main0_0 IntLoc)
(declare-locvar $p16_main0_0 IntLoc)
(declare-locvar $p13_main0_0 IntLoc)
(declare-locvar $p12_main0_0 IntLoc)
(declare-hvar H3_1 IntHeap)
(declare-hvar AH2_1 IntHeap)
(declare-locvar $p9_main01_1 IntLoc)
(declare-locvar $p8_main01_1 IntLoc)
(declare-locvar $p4_main01_1 IntLoc)
(declare-locvar $p3_main01_1 IntLoc)
(declare-locvar $p11_main01_1 IntLoc)
(declare-locvar $p10_main01_1 IntLoc)
(declare-const $i7_main01_1 Int)
(declare-const $i6_main01_1 Int)
(declare-const $i5_main01_1 Int)
(declare-const $i2_main01_1 Int)
(declare-const $i1_main01_1 Int)
(declare-const $i1_foo01_1 Int)
(declare-const $i0_main01_1 Int)
(declare-const $i0_foo01_1 Int)
(declare-locvar $M.33_1 IntLoc)
(declare-locvar $M.12_1 IntLoc)
(declare-const $M.02_1 Int)
(declare-hvar h1_1 IntHeap)
(declare-const d5_1 Int)
(declare-hvar H2_1 IntHeap)
(declare-locvar $M.32_1 IntLoc)
(declare-locvar l3_1 IntLoc)
(declare-hvar AH1_1 IntHeap)
(declare-locvar l4_1 IntLoc)
(declare-const d4_1 Int)
(declare-const d3_1 Int)
(declare-hvar H1_1 IntHeap)
(declare-locvar l1_1 IntLoc)
(declare-hvar AH_0 IntHeap)
(declare-locvar l2_1 IntLoc)
(declare-const d2_1 Int)
(declare-const d1_1 Int)
(declare-hvar H_0 IntHeap)
(declare-locvar $M.31_1 IntLoc)
(declare-locvar $M.11_1 IntLoc)
(declare-const $M.01_1 Int)
(declare-const loc_0 Int)
(assert
 (let (($x2634 (= AH_5 (uplus ah9 (pt l19 (Pt_R_1 d32))))))
 (let (($x2627 (or (= H_5 (uplus h11 (pt l17 (Pt_R_0 l18)))) (= H_5 (uplus h11 (pt l17 (Pt_R_1 d31)))))))
 (let (($x2198 (= loc_5 8)))
 (let (($x2167 (= H_5 H_4)))
 (let (($x2072 (= AH_5 AH_4)))
 (let (($x2073 (and true $x2072)))
 (let (($x2168 (and $x2073 $x2167)))
 (let (($x2163 (= $i8_foo0_5 $i8_foo0_4)))
 (let (($x2065 (= $i7_main0_5 $i7_main0_4)))
 (let (($x2160 (= $i7_foo0_5 $i7_foo0_4)))
 (let (($x2062 (= $i6_main0_5 $i6_main0_4)))
 (let (($x2157 (= $i6_foo0_5 $i6_foo0_4)))
 (let (($x2059 (= $i5_main0_5 $i5_main0_4)))
 (let (($x2154 (= $i4_foo0_5 $i4_foo0_4)))
 (let (($x2056 (= $i2_main0_5 $i2_main0_4)))
 (let (($x2053 (= $i2_foo0_5 $i2_foo0_4)))
 (let (($x2050 (= $i1_main0_5 $i1_main0_4)))
 (let (($x2047 (= $i1_foo0_5 $i1_foo0_4)))
 (let (($x2044 (= $i15_main0_5 $i15_main0_4)))
 (let (($x2041 (= $i14_main0_5 $i14_main0_4)))
 (let (($x2038 (= $i0_main0_5 $i0_main0_4)))
 (let (($x2039 (and (and (and true (= $M.0_5 $M.0_4)) (= $i0_foo0_5 $i0_foo0_4)) $x2038)))
 (let (($x2057 (and (and (and (and (and (and $x2039 $x2041) $x2044) $x2047) $x2050) $x2053) $x2056)))
 (let (($x2192 (and (and (and (and (and (and $x2057 $x2154) $x2059) $x2157) $x2062) $x2160) $x2065)))
 (let (($x2193 (and $x2192 $x2163)))
 (let (($x2028 (= $p9_main0_5 $p9_main0_4)))
 (let (($x2025 (= $p8_main0_5 $p8_main0_4)))
 (let (($x2145 (= $p5_foo0_5 $p5_foo0_4)))
 (let (($x2022 (= $p4_main0_5 $p4_main0_4)))
 (let (($x2019 (= $p3_main0_5 $p3_main0_4)))
 (let (($x2141 (= $p3_foo0_5 $p3_foo0_4)))
 (let (($x2016 (= $p24_main0_5 $p24_main0_4)))
 (let (($x2013 (= $p23_main0_5 $p23_main0_4)))
 (let (($x2010 (= $p22_main0_5 $p22_main0_4)))
 (let (($x2007 (= $p21_main0_5 $p21_main0_4)))
 (let (($x2004 (= $p20_main0_5 $p20_main0_4)))
 (let (($x2001 (= $p19_main0_5 $p19_main0_4)))
 (let (($x1998 (= $p18_main0_5 $p18_main0_4)))
 (let (($x1995 (= $p17_main0_5 $p17_main0_4)))
 (let (($x1992 (= $p16_main0_5 $p16_main0_4)))
 (let (($x1989 (= $p13_main0_5 $p13_main0_4)))
 (let (($x1986 (= $p12_main0_5 $p12_main0_4)))
 (let (($x1983 (= $p11_main0_5 $p11_main0_4)))
 (let (($x1980 (= $p10_main0_5 $p10_main0_4)))
 (let (($x1981 (and (and (and true (= $M.1_5 $M.1_4)) (= $M.3_5 $M.3_4)) $x1980)))
 (let (($x1984 (and $x1981 $x1983)))
 (let (($x2002 (and (and (and (and (and (and $x1984 $x1986) $x1989) $x1992) $x1995) $x1998) $x2001)))
 (let (($x2017 (and (and (and (and (and $x2002 $x2004) $x2007) $x2010) $x2013) $x2016)))
 (let (($x2185 (and (and (and (and (and (and $x2017 $x2141) $x2019) $x2022) $x2145) $x2025) $x2028)))
 (let (($x2177 (= $r_main0_5 $r_main01_5)))
 (let (($x2178 (and $x2177 true)))
 (let (($x2175 (= $r_main01_5 0)))
 (let (($x1754 (= loc_4 7)))
 (let (($x2612 (=> $x1754 (and (and (and (and (and $x2175 $x2178) $x2185) $x2193) $x2168) $x2198))))
 (let (($x2170 (= loc_5 6)))
 (let (($x2068 (= $r_main0_5 $r_main0_4)))
 (let (($x2156 (and (and (and (and (and (and $x2039 $x2047) $x2050) $x2053) $x2056) $x2154) $x2059)))
 (let (($x2165 (and (and (and (and (and (and $x2156 $x2157) $x2062) $x2160) $x2065) $x2163) $x2068)))
 (let (($x2137 (and (and (and (and (and (and $x1984 $x1992) $x1995) $x1998) $x2001) $x2004) $x2007)))
 (let (($x2144 (and (and (and (and (and (and $x2137 $x2010) $x2013) $x2016) $x2141) $x2019) $x2022)))
 (let (($x2148 (and (and (and $x2144 $x2145) $x2025) $x2028)))
 (let (($x2127 (= $p13_main0_5 $p13_main01_5)))
 (let (($x2125 (= $p12_main0_5 $p12_main01_5)))
 (let (($x2123 (= $i15_main0_5 $i15_main01_5)))
 (let (($x2122 (= $i14_main0_5 $i14_main01_5)))
 (let (($x2128 (and (and (and $x2122 $x2123) $x2125) $x2127)))
 (let (($x2466 (and $x2128 true)))
 (let (($x2094 (or (and (and (distinct $i14_main01_5 0) true) (= $i15_main01_5 1)) (and (not (and (distinct $i14_main01_5 0) true)) (= $i15_main01_5 0)))))
 (let (($x2098 (= $i14_main01_5 d9_5)))
 (let (($x2102 (= H_4 (uplus h5_5 (pt $p13_main01_5 (Pt_R_1 d9_5))))))
 (let (($x2103 (and $x2102 $x2098)))
 (let (($x2115 (= $p13_main01_5 (locadd $p12_main01_5 2))))
 (let (($x2117 (= $p12_main01_5 $M.3_4)))
 (let (($x2602 (and (and (and (and (and (and $x2117 $x2115) $x2103) $x2094) $x2466) $x2148) $x2165)))
 (let (($x1621 (= loc_4 4)))
 (let (($x2076 (= loc_5 5)))
 (let (($x2069 (and (and (and (and $x2057 $x2059) $x2062) $x2065) $x2068)))
 (let (($x2029 (and (and (and (and $x2017 $x2019) $x2022) $x2025) $x2028)))
 (let (($x1967 (= H_5 H4_5)))
 (let (($x1964 (= $p5_foo0_5 $p5_foo01_5)))
 (let (($x1961 (= $p3_foo0_5 $p3_foo01_5)))
 (let (($x1958 (= $i8_foo0_5 $i8_foo01_5)))
 (let (($x1955 (= $i7_foo0_5 $i7_foo01_5)))
 (let (($x1956 (and (and (= $i4_foo0_5 $i4_foo01_5) (= $i6_foo0_5 $i6_foo01_5)) $x1955)))
 (let (($x1968 (and (and (and (and $x1956 $x1958) $x1961) $x1964) $x1967)))
 (let (($x2449 (and $x1968 true)))
 (let (($x1909 (or (and (< $i6_foo01_5 $i7_foo01_5) (= $i8_foo01_5 1)) (and (not (< $i6_foo01_5 $i7_foo01_5)) (= $i8_foo01_5 0)))))
 (let (($x1911 (= $i7_foo01_5 2)))
 (let (($x1914 (= $i6_foo01_5 (+ $i2_foo0_4 1))))
 (let (($x1920 (= H4_5 (uplus h3_5 (pt $p5_foo01_5 (Pt_R_1 (- 1)))))))
 (let (($x1924 (= H_4 (uplus h3_5 (pt $p5_foo01_5 (Pt_R_1 d7_5))))))
 (let (($x1925 (and $x1924 $x1920)))
 (let (($x1937 (= $p5_foo01_5 (locadd $p3_foo01_5 $i4_foo01_5))))
 (let (($x2586 (and (and (= $p3_foo01_5 $M.1_4) (= $i4_foo01_5 $i2_foo0_4)) $x1937)))
 (let (($x2592 (and (and (and (and (and (and $x2586 $x1925) $x1914) $x1911) $x1909) $x2449) $x2029)))
 (let (($x1599 (= loc_4 3)))
 (let (($x2606 (and (=> $x1599 (and (and (and $x2592 $x2069) $x2073) $x2076)) (=> $x1621 (and (and $x2602 $x2168) $x2170)))))
 (let (($x1585 (= $r_main0_4 $r_main0_3)))
 (let (($x1582 (= $i8_foo0_4 $i8_foo0_3)))
 (let (($x1579 (= $i7_main0_4 $i7_main0_3)))
 (let (($x1576 (= $i7_foo0_4 $i7_foo0_3)))
 (let (($x1573 (= $i6_main0_4 $i6_main0_3)))
 (let (($x1570 (= $i6_foo0_4 $i6_foo0_3)))
 (let (($x1567 (= $i5_main0_4 $i5_main0_3)))
 (let (($x1564 (= $i4_foo0_4 $i4_foo0_3)))
 (let (($x1561 (= $i2_main0_4 $i2_main0_3)))
 (let (($x1607 (= $i2_foo0_4 $i2_foo0_3)))
 (let (($x1558 (= $i1_main0_4 $i1_main0_3)))
 (let (($x1555 (= $i1_foo0_4 $i1_foo0_3)))
 (let (($x1552 (= $i15_main0_4 $i15_main0_3)))
 (let (($x1549 (= $i14_main0_4 $i14_main0_3)))
 (let (($x1546 (= $i0_main0_4 $i0_main0_3)))
 (let (($x1547 (and (and (and true (= $M.0_4 $M.0_3)) (= $i0_foo0_4 $i0_foo0_3)) $x1546)))
 (let (($x1559 (and (and (and (and $x1547 $x1549) $x1552) $x1555) $x1558)))
 (let (($x1613 (and (and (and (and (and (and $x1559 $x1607) $x1561) $x1564) $x1567) $x1570) $x1573)))
 (let (($x1617 (and (and (and (and $x1613 $x1576) $x1579) $x1582) $x1585)))
 (let (($x1536 (= $p9_main0_4 $p9_main0_3)))
 (let (($x1533 (= $p8_main0_4 $p8_main0_3)))
 (let (($x1530 (= $p5_foo0_4 $p5_foo0_3)))
 (let (($x1527 (= $p4_main0_4 $p4_main0_3)))
 (let (($x1524 (= $p3_main0_4 $p3_main0_3)))
 (let (($x1521 (= $p3_foo0_4 $p3_foo0_3)))
 (let (($x1503 (= $p19_main0_4 $p19_main0_3)))
 (let (($x1500 (= $p18_main0_4 $p18_main0_3)))
 (let (($x1497 (= $p17_main0_4 $p17_main0_3)))
 (let (($x1494 (= $p16_main0_4 $p16_main0_3)))
 (let (($x1491 (= $p13_main0_4 $p13_main0_3)))
 (let (($x1488 (= $p12_main0_4 $p12_main0_3)))
 (let (($x1485 (= $p11_main0_4 $p11_main0_3)))
 (let (($x1482 (= $p10_main0_4 $p10_main0_3)))
 (let (($x1483 (and (and (and true (= $M.1_4 $M.1_3)) (= $M.3_4 $M.3_3)) $x1482)))
 (let (($x1492 (and (and (and $x1483 $x1485) $x1488) $x1491)))
 (let (($x1504 (and (and (and (and $x1492 $x1494) $x1497) $x1500) $x1503)))
 (let (($x1884 (and (and (and (and (and (and $x1504 $x1521) $x1524) $x1527) $x1530) $x1533) $x1536)))
 (let (($x1875 (= H_4 H8_4)))
 (let (($x1873 (= AH_4 AH6_4)))
 (let (($x1871 (= $p24_main0_4 $p24_main01_4)))
 (let (($x1869 (= $p23_main0_4 $p23_main01_4)))
 (let (($x1867 (= $p22_main0_4 $p22_main01_4)))
 (let (($x1865 (= $p21_main0_4 $p21_main01_4)))
 (let (($x1864 (= $p20_main0_4 $p20_main01_4)))
 (let (($x1876 (and (and (and (and (and (and $x1864 $x1865) $x1867) $x1869) $x1871) $x1873) $x1875)))
 (let (($x1877 (and $x1876 true)))
 (let (($x1785 (= H8_4 h10_4)))
 (let (($x1786 (= $p24_main01_4 l16_4)))
 (let (($x1790 (= H7_4 (uplus h10_4 (pt l16_4 (Pt_R_1 d29_4))))))
 (let (($x1793 (= d26_4 1)))
 (let (($x1795 (= $p24_main01_4 l14_4)))
 (let ((?x1801 (uplus h10_4 (uplus (pt l14_4 (Pt_R_1 d27_4)) (pt l15_4 (Pt_R_1 d28_4))))))
 (let (($x1802 (= H7_4 ?x1801)))
 (let (($x1805 (= d26_4 2)))
 (let (($x1807 (and (=> $x1805 (and (and $x1802 $x1795) $x1785)) (=> $x1793 (and (and $x1790 $x1786) $x1785)))))
 (let (($x1808 (= AH6_4 ah7)))
 (let (($x1812 (= AH5_4 (uplus ah7 (pt $p24_main01_4 (Pt_R_1 d26_4))))))
 (let (($x1814 (and (and $x1812 $x1808) $x1807)))
 (let (($x1816 (= $p24_main01_4 $p23_main01_4)))
 (let (($x1819 (= $p23_main01_4 (locadd $p22_main01_4 (- 1)))))
 (let (($x1821 (= $p22_main01_4 $M.3_3)))
 (let (($x1823 (= H7_4 h9_4)))
 (let (($x1824 (= $p21_main01_4 l13_4)))
 (let (($x1828 (= H_3 (uplus h9_4 (pt l13_4 (Pt_R_1 d24_4))))))
 (let (($x1831 (= d21_4 1)))
 (let (($x1833 (= $p21_main01_4 l11_4)))
 (let ((?x1839 (uplus h9_4 (uplus (pt l11_4 (Pt_R_1 d22_4)) (pt l12_4 (Pt_R_1 d23_4))))))
 (let (($x1840 (= H_3 ?x1839)))
 (let (($x1843 (= d21_4 2)))
 (let (($x1845 (and (=> $x1843 (and (and $x1840 $x1833) $x1823)) (=> $x1831 (and (and $x1828 $x1824) $x1823)))))
 (let (($x1846 (= AH5_4 ah5)))
 (let (($x1850 (= AH_3 (uplus ah5 (pt $p21_main01_4 (Pt_R_1 d21_4))))))
 (let (($x1852 (and (and $x1850 $x1846) $x1845)))
 (let (($x2573 (and (and (= $p20_main01_4 $M.1_3) (= $p21_main01_4 $p20_main01_4)) $x1852)))
 (let (($x2579 (and (and (and (and (and (and $x2573 $x1821) $x1819) $x1816) $x1814) $x1877) $x1884)))
 (let (($x1461 (= loc_3 6)))
 (let (($x1784 (and $x1461 (not (= $i15_main0_3 1)))))
 (let (($x1518 (= $p24_main0_4 $p24_main0_3)))
 (let (($x1515 (= $p23_main0_4 $p23_main0_3)))
 (let (($x1512 (= $p22_main0_4 $p22_main0_3)))
 (let (($x1509 (= $p21_main0_4 $p21_main0_3)))
 (let (($x1742 (and (and (and (and $x1492 (= $p20_main0_4 $p20_main0_3)) $x1509) $x1512) $x1515)))
 (let (($x1748 (and (and (and (and (and (and $x1742 $x1518) $x1521) $x1524) $x1527) $x1530) $x1533)))
 (let (($x1749 (and $x1748 $x1536)))
 (let (($x1735 (= H_4 H6_4)))
 (let (($x1733 (= AH_4 AH4_4)))
 (let (($x1731 (= $p19_main0_4 $p19_main01_4)))
 (let (($x1729 (= $p18_main0_4 $p18_main01_4)))
 (let (($x1727 (= $p17_main0_4 $p17_main01_4)))
 (let (($x1726 (= $p16_main0_4 $p16_main01_4)))
 (let (($x1736 (and (and (and (and (and $x1726 $x1727) $x1729) $x1731) $x1733) $x1735)))
 (let (($x1737 (and $x1736 true)))
 (let (($x1651 (= H6_4 h8_4)))
 (let (($x1652 (= $p19_main01_4 l10_4)))
 (let (($x1656 (= H5_4 (uplus h8_4 (pt l10_4 (Pt_R_1 d19_4))))))
 (let (($x1659 (= d16_4 1)))
 (let (($x1661 (= $p19_main01_4 l8_4)))
 (let ((?x1667 (uplus h8_4 (uplus (pt l8_4 (Pt_R_1 d17_4)) (pt l9_4 (Pt_R_1 d18_4))))))
 (let (($x1668 (= H5_4 ?x1667)))
 (let (($x1671 (= d16_4 2)))
 (let (($x1673 (and (=> $x1671 (and (and $x1668 $x1661) $x1651)) (=> $x1659 (and (and $x1656 $x1652) $x1651)))))
 (let (($x1674 (= AH4_4 ah3)))
 (let (($x1678 (= AH3_4 (uplus ah3 (pt $p19_main01_4 (Pt_R_1 d16_4))))))
 (let (($x1680 (and (and $x1678 $x1674) $x1673)))
 (let (($x1682 (= $p19_main01_4 $p18_main01_4)))
 (let (($x1684 (= $p18_main01_4 $M.3_3)))
 (let (($x1686 (= H5_4 h7_4)))
 (let (($x1687 (= $p17_main01_4 l7_4)))
 (let (($x1691 (= H_3 (uplus h7_4 (pt l7_4 (Pt_R_1 d14_4))))))
 (let (($x1694 (= d11_4 1)))
 (let (($x1696 (= $p17_main01_4 l5_4)))
 (let ((?x1702 (uplus h7_4 (uplus (pt l5_4 (Pt_R_1 d12_4)) (pt l6_4 (Pt_R_1 d13_4))))))
 (let (($x1703 (= H_3 ?x1702)))
 (let (($x1706 (= d11_4 2)))
 (let (($x1708 (and (=> $x1706 (and (and $x1703 $x1696) $x1686)) (=> $x1694 (and (and $x1691 $x1687) $x1686)))))
 (let (($x1709 (= AH3_4 ah1)))
 (let (($x1713 (= AH_3 (uplus ah1 (pt $p17_main01_4 (Pt_R_1 d11_4))))))
 (let (($x1715 (and (and $x1713 $x1709) $x1708)))
 (let (($x2562 (and (and (= $p16_main01_4 $M.1_3) (= $p17_main01_4 $p16_main01_4)) $x1715)))
 (let (($x2568 (and (and (and (and (and (and $x2562 $x1684) $x1682) $x1680) $x1737) $x1749) $x1617)))
 (let (($x1649 (= $i15_main0_3 1)))
 (let (($x1650 (and $x1461 $x1649)))
 (let (($x1592 (= H_4 H_3)))
 (let (($x1593 (and (and true (= AH_4 AH_3)) $x1592)))
 (let (($x1516 (and (and (and (and $x1504 (= $p20_main0_4 $p20_main0_3)) $x1509) $x1512) $x1515)))
 (let (($x1534 (and (and (and (and (and (and $x1516 $x1518) $x1521) $x1524) $x1527) $x1530) $x1533)))
 (let (($x1537 (and $x1534 $x1536)))
 (let (($x1158 (and true true)))
 (let (($x1366 (= loc_3 5)))
 (let (($x1603 (and $x1366 (not (= $i8_foo0_3 1)))))
 (let (($x1577 (and (and (and (and (and (and $x1559 $x1561) $x1564) $x1567) $x1570) $x1573) $x1576)))
 (let (($x1586 (and (and (and $x1577 $x1579) $x1582) $x1585)))
 (let (($x1472 (= $i2_foo0_4 $i2_foo02_4)))
 (let (($x1473 (and $x1472 true)))
 (let (($x1469 (= $i2_foo02_4 $i6_foo0_3)))
 (let (($x1467 (= $i8_foo0_3 1)))
 (let (($x1468 (and $x1366 $x1467)))
 (let (($x2554 (=> $x1468 (and (and (and (and (and $x1469 $x1473) $x1537) $x1586) $x1593) $x1599))))
 (let (($x2560 (and $x2554 (=> $x1603 (and (and (and (and $x1158 $x1537) $x1617) $x1593) $x1621)))))
 (let (($x2583 (and (and $x2560 (=> $x1650 (and $x2568 $x1754))) (=> $x1784 (and (and $x2579 $x1617) $x1754)))))
 (let (($x1457 (= H_3 H_2)))
 (let (($x1361 (= AH_3 AH_2)))
 (let (($x1362 (and true $x1361)))
 (let (($x1458 (and $x1362 $x1457)))
 (let (($x1357 (= $r_main0_3 $r_main0_2)))
 (let (($x1453 (= $i8_foo0_3 $i8_foo0_2)))
 (let (($x1354 (= $i7_main0_3 $i7_main0_2)))
 (let (($x1450 (= $i7_foo0_3 $i7_foo0_2)))
 (let (($x1351 (= $i6_main0_3 $i6_main0_2)))
 (let (($x1447 (= $i6_foo0_3 $i6_foo0_2)))
 (let (($x1348 (= $i5_main0_3 $i5_main0_2)))
 (let (($x1444 (= $i4_foo0_3 $i4_foo0_2)))
 (let (($x1345 (= $i2_main0_3 $i2_main0_2)))
 (let (($x1342 (= $i2_foo0_3 $i2_foo0_2)))
 (let (($x1339 (= $i1_main0_3 $i1_main0_2)))
 (let (($x1336 (= $i1_foo0_3 $i1_foo0_2)))
 (let (($x1327 (= $i0_main0_3 $i0_main0_2)))
 (let (($x1328 (and (and (and true (= $M.0_3 $M.0_2)) (= $i0_foo0_3 $i0_foo0_2)) $x1327)))
 (let (($x1446 (and (and (and (and (and (and $x1328 $x1336) $x1339) $x1342) $x1345) $x1444) $x1348)))
 (let (($x1455 (and (and (and (and (and (and $x1446 $x1447) $x1351) $x1450) $x1354) $x1453) $x1357)))
 (let (($x1317 (= $p9_main0_3 $p9_main0_2)))
 (let (($x1314 (= $p8_main0_3 $p8_main0_2)))
 (let (($x1435 (= $p5_foo0_3 $p5_foo0_2)))
 (let (($x1311 (= $p4_main0_3 $p4_main0_2)))
 (let (($x1308 (= $p3_main0_3 $p3_main0_2)))
 (let (($x1431 (= $p3_foo0_3 $p3_foo0_2)))
 (let (($x1305 (= $p24_main0_3 $p24_main0_2)))
 (let (($x1302 (= $p23_main0_3 $p23_main0_2)))
 (let (($x1299 (= $p22_main0_3 $p22_main0_2)))
 (let (($x1296 (= $p21_main0_3 $p21_main0_2)))
 (let (($x1293 (= $p20_main0_3 $p20_main0_2)))
 (let (($x1290 (= $p19_main0_3 $p19_main0_2)))
 (let (($x1287 (= $p18_main0_3 $p18_main0_2)))
 (let (($x1284 (= $p17_main0_3 $p17_main0_2)))
 (let (($x1281 (= $p16_main0_3 $p16_main0_2)))
 (let (($x1272 (= $p11_main0_3 $p11_main0_2)))
 (let (($x1269 (= $p10_main0_3 $p10_main0_2)))
 (let (($x1270 (and (and (and true (= $M.1_3 $M.1_2)) (= $M.3_3 $M.3_2)) $x1269)))
 (let (($x1273 (and $x1270 $x1272)))
 (let (($x1427 (and (and (and (and (and (and $x1273 $x1281) $x1284) $x1287) $x1290) $x1293) $x1296)))
 (let (($x1434 (and (and (and (and (and (and $x1427 $x1299) $x1302) $x1305) $x1431) $x1308) $x1311)))
 (let (($x1438 (and (and (and $x1434 $x1435) $x1314) $x1317)))
 (let (($x1417 (= $p13_main0_3 $p13_main01_3)))
 (let (($x1415 (= $p12_main0_3 $p12_main01_3)))
 (let (($x1413 (= $i15_main0_3 $i15_main01_3)))
 (let (($x1412 (= $i14_main0_3 $i14_main01_3)))
 (let (($x1418 (and (and (and $x1412 $x1413) $x1415) $x1417)))
 (let (($x2310 (and $x1418 true)))
 (let (($x1384 (or (and (and (distinct $i14_main01_3 0) true) (= $i15_main01_3 1)) (and (not (and (distinct $i14_main01_3 0) true)) (= $i15_main01_3 0)))))
 (let (($x1388 (= $i14_main01_3 d9_3)))
 (let (($x1392 (= H_2 (uplus h5_3 (pt $p13_main01_3 (Pt_R_1 d9_3))))))
 (let (($x1393 (and $x1392 $x1388)))
 (let (($x1405 (= $p13_main01_3 (locadd $p12_main01_3 2))))
 (let (($x1407 (= $p12_main01_3 $M.3_2)))
 (let (($x2543 (and (and (and (and (and (and $x1407 $x1405) $x1393) $x1384) $x2310) $x1438) $x1455)))
 (let (($x1176 (= loc_2 4)))
 (let (($x1333 (= $i15_main0_3 $i15_main0_2)))
 (let (($x1340 (and (and (and (and $x1328 (= $i14_main0_3 $i14_main0_2)) $x1333) $x1336) $x1339)))
 (let (($x1358 (and (and (and (and (and (and $x1340 $x1342) $x1345) $x1348) $x1351) $x1354) $x1357)))
 (let (($x1278 (= $p13_main0_3 $p13_main0_2)))
 (let (($x1285 (and (and (and (and $x1273 (= $p12_main0_3 $p12_main0_2)) $x1278) $x1281) $x1284)))
 (let (($x1303 (and (and (and (and (and (and $x1285 $x1287) $x1290) $x1293) $x1296) $x1299) $x1302)))
 (let (($x1318 (and (and (and (and (and $x1303 $x1305) $x1308) $x1311) $x1314) $x1317)))
 (let (($x1256 (= H_3 H4_3)))
 (let (($x1253 (= $p5_foo0_3 $p5_foo01_3)))
 (let (($x1250 (= $p3_foo0_3 $p3_foo01_3)))
 (let (($x1247 (= $i8_foo0_3 $i8_foo01_3)))
 (let (($x1244 (= $i7_foo0_3 $i7_foo01_3)))
 (let (($x1245 (and (and (= $i4_foo0_3 $i4_foo01_3) (= $i6_foo0_3 $i6_foo01_3)) $x1244)))
 (let (($x1257 (and (and (and (and $x1245 $x1247) $x1250) $x1253) $x1256)))
 (let (($x2293 (and $x1257 true)))
 (let (($x1198 (or (and (< $i6_foo01_3 $i7_foo01_3) (= $i8_foo01_3 1)) (and (not (< $i6_foo01_3 $i7_foo01_3)) (= $i8_foo01_3 0)))))
 (let (($x1200 (= $i7_foo01_3 2)))
 (let (($x1203 (= $i6_foo01_3 (+ $i2_foo0_2 1))))
 (let (($x1209 (= H4_3 (uplus h3_3 (pt $p5_foo01_3 (Pt_R_1 (- 1)))))))
 (let (($x1213 (= H_2 (uplus h3_3 (pt $p5_foo01_3 (Pt_R_1 d7_3))))))
 (let (($x1214 (and $x1213 $x1209)))
 (let (($x1226 (= $p5_foo01_3 (locadd $p3_foo01_3 $i4_foo01_3))))
 (let (($x2527 (and (and (= $p3_foo01_3 $M.1_2) (= $i4_foo01_3 $i2_foo0_2)) $x1226)))
 (let (($x2533 (and (and (and (and (and (and $x2527 $x1214) $x1203) $x1200) $x1198) $x2293) $x1318)))
 (let (($x1152 (= loc_2 3)))
 (let (($x2547 (and (=> $x1152 (and (and (and $x2533 $x1358) $x1362) $x1366)) (=> $x1176 (and (and $x2543 $x1458) $x1461)))))
 (let (($x1145 (= H_2 H_1)))
 (let (($x1146 (and (and true (= AH_2 AH_1)) $x1145)))
 (let (($x1138 (= $r_main0_2 $r_main0_1)))
 (let (($x1135 (= $i8_foo0_2 $i8_foo0_1)))
 (let (($x1132 (= $i7_main0_2 $i7_main0_1)))
 (let (($x1129 (= $i7_foo0_2 $i7_foo0_1)))
 (let (($x1126 (= $i6_main0_2 $i6_main0_1)))
 (let (($x1123 (= $i6_foo0_2 $i6_foo0_1)))
 (let (($x1120 (= $i5_main0_2 $i5_main0_1)))
 (let (($x1117 (= $i4_foo0_2 $i4_foo0_1)))
 (let (($x1114 (= $i2_main0_2 $i2_main0_1)))
 (let (($x1161 (= $i2_foo0_2 $i2_foo0_1)))
 (let (($x1111 (= $i1_main0_2 $i1_main0_1)))
 (let (($x1108 (= $i1_foo0_2 $i1_foo0_1)))
 (let (($x1105 (= $i15_main0_2 $i15_main0_1)))
 (let (($x1102 (= $i14_main0_2 $i14_main0_1)))
 (let (($x1099 (= $i0_main0_2 $i0_main0_1)))
 (let (($x1100 (and (and (and true (= $M.0_2 $M.0_1)) (= $i0_foo0_2 $i0_foo0_1)) $x1099)))
 (let (($x1112 (and (and (and (and $x1100 $x1102) $x1105) $x1108) $x1111)))
 (let (($x1167 (and (and (and (and (and (and $x1112 $x1161) $x1114) $x1117) $x1120) $x1123) $x1126)))
 (let (($x1171 (and (and (and (and $x1167 $x1129) $x1132) $x1135) $x1138)))
 (let (($x1089 (= $p9_main0_2 $p9_main0_1)))
 (let (($x1086 (= $p8_main0_2 $p8_main0_1)))
 (let (($x1083 (= $p5_foo0_2 $p5_foo0_1)))
 (let (($x1080 (= $p4_main0_2 $p4_main0_1)))
 (let (($x1077 (= $p3_main0_2 $p3_main0_1)))
 (let (($x1074 (= $p3_foo0_2 $p3_foo0_1)))
 (let (($x1071 (= $p24_main0_2 $p24_main0_1)))
 (let (($x1068 (= $p23_main0_2 $p23_main0_1)))
 (let (($x1065 (= $p22_main0_2 $p22_main0_1)))
 (let (($x1062 (= $p21_main0_2 $p21_main0_1)))
 (let (($x1059 (= $p20_main0_2 $p20_main0_1)))
 (let (($x1056 (= $p19_main0_2 $p19_main0_1)))
 (let (($x1053 (= $p18_main0_2 $p18_main0_1)))
 (let (($x1050 (= $p17_main0_2 $p17_main0_1)))
 (let (($x1047 (= $p16_main0_2 $p16_main0_1)))
 (let (($x1044 (= $p13_main0_2 $p13_main0_1)))
 (let (($x1041 (= $p12_main0_2 $p12_main0_1)))
 (let (($x1038 (= $p11_main0_2 $p11_main0_1)))
 (let (($x1035 (= $p10_main0_2 $p10_main0_1)))
 (let (($x1036 (and (and (and true (= $M.1_2 $M.1_1)) (= $M.3_2 $M.3_1)) $x1035)))
 (let (($x1054 (and (and (and (and (and (and $x1036 $x1038) $x1041) $x1044) $x1047) $x1050) $x1053)))
 (let (($x1072 (and (and (and (and (and (and $x1054 $x1056) $x1059) $x1062) $x1065) $x1068) $x1071)))
 (let (($x1090 (and (and (and (and (and (and $x1072 $x1074) $x1077) $x1080) $x1083) $x1086) $x1089)))
 (let (($x1015 (= loc_1 2)))
 (let (($x1156 (and $x1015 (not (= $i1_foo0_1 1)))))
 (let (($x1130 (and (and (and (and (and (and $x1112 $x1114) $x1117) $x1120) $x1123) $x1126) $x1129)))
 (let (($x1139 (and (and (and $x1130 $x1132) $x1135) $x1138)))
 (let (($x1025 (= $i2_foo0_2 $i2_foo01_2)))
 (let (($x1026 (and $x1025 true)))
 (let (($x1022 (= $i2_foo01_2 0)))
 (let (($x1020 (= $i1_foo0_1 1)))
 (let (($x1021 (and $x1015 $x1020)))
 (let (($x2518 (=> $x1021 (and (and (and (and (and $x1022 $x1026) $x1090) $x1139) $x1146) $x1152))))
 (let (($x2524 (and $x2518 (=> $x1156 (and (and (and (and $x1158 $x1090) $x1171) $x1146) $x1176)))))
 (let (($x1011 (= $r_main0_1 $r_main0_0)))
 (let (($x1007 (= $i8_foo0_1 $i8_foo0_0)))
 (let (($x1003 (= $i7_foo0_1 $i7_foo0_0)))
 (let (($x999 (= $i6_foo0_1 $i6_foo0_0)))
 (let (($x995 (= $i4_foo0_1 $i4_foo0_0)))
 (let (($x991 (= $i2_foo0_1 $i2_foo0_0)))
 (let (($x987 (= $i15_main0_1 $i15_main0_0)))
 (let (($x996 (and (and (and (and true (= $i14_main0_1 $i14_main0_0)) $x987) $x991) $x995)))
 (let (($x1012 (and (and (and (and $x996 $x999) $x1003) $x1007) $x1011)))
 (let (($x978 (= $p5_foo0_1 $p5_foo0_0)))
 (let (($x974 (= $p3_foo0_1 $p3_foo0_0)))
 (let (($x970 (= $p24_main0_1 $p24_main0_0)))
 (let (($x966 (= $p23_main0_1 $p23_main0_0)))
 (let (($x962 (= $p22_main0_1 $p22_main0_0)))
 (let (($x958 (= $p21_main0_1 $p21_main0_0)))
 (let (($x954 (= $p20_main0_1 $p20_main0_0)))
 (let (($x950 (= $p19_main0_1 $p19_main0_0)))
 (let (($x946 (= $p18_main0_1 $p18_main0_0)))
 (let (($x942 (= $p17_main0_1 $p17_main0_0)))
 (let (($x938 (= $p16_main0_1 $p16_main0_0)))
 (let (($x934 (= $p13_main0_1 $p13_main0_0)))
 (let (($x943 (and (and (and (and true (= $p12_main0_1 $p12_main0_0)) $x934) $x938) $x942)))
 (let (($x967 (and (and (and (and (and (and $x943 $x946) $x950) $x954) $x958) $x962) $x966)))
 (let (($x979 (and (and (and $x967 $x970) $x974) $x978)))
 (let (($x922 (= H_1 H3_1)))
 (let (($x919 (= AH_1 AH2_1)))
 (let (($x916 (= $p9_main0_1 $p9_main01_1)))
 (let (($x913 (= $p8_main0_1 $p8_main01_1)))
 (let (($x910 (= $p4_main0_1 $p4_main01_1)))
 (let (($x907 (= $p3_main0_1 $p3_main01_1)))
 (let (($x904 (= $p11_main0_1 $p11_main01_1)))
 (let (($x901 (= $p10_main0_1 $p10_main01_1)))
 (let (($x898 (= $i7_main0_1 $i7_main01_1)))
 (let (($x895 (= $i6_main0_1 $i6_main01_1)))
 (let (($x892 (= $i5_main0_1 $i5_main01_1)))
 (let (($x889 (= $i2_main0_1 $i2_main01_1)))
 (let (($x886 (= $i1_main0_1 $i1_main01_1)))
 (let (($x883 (= $i1_foo0_1 $i1_foo01_1)))
 (let (($x880 (= $i0_main0_1 $i0_main01_1)))
 (let (($x877 (= $i0_foo0_1 $i0_foo01_1)))
 (let (($x874 (= $M.3_1 $M.33_1)))
 (let (($x878 (and (and (and (= $M.0_1 $M.02_1) (= $M.1_1 $M.12_1)) $x874) $x877)))
 (let (($x896 (and (and (and (and (and (and $x878 $x880) $x883) $x886) $x889) $x892) $x895)))
 (let (($x914 (and (and (and (and (and (and $x896 $x898) $x901) $x904) $x907) $x910) $x913)))
 (let (($x923 (and (and (and $x914 $x916) $x919) $x922)))
 (let (($x2250 (and $x923 true)))
 (let (($x754 (or (and (< 0 $i0_foo01_1) (= $i1_foo01_1 1)) (and (not (< 0 $i0_foo01_1)) (= $i1_foo01_1 0)))))
 (let (($x756 (= $i0_foo01_1 2)))
 (let (($x762 (= H3_1 (uplus h1_1 (pt $p10_main01_1 (Pt_R_1 0))))))
 (let (($x766 (= H2_1 (uplus h1_1 (pt $p10_main01_1 (Pt_R_1 d5_1))))))
 (let (($x767 (and $x766 $x762)))
 (let (($x778 (= $M.33_1 $p11_main01_1)))
 (let (($x781 (= $p11_main01_1 (locadd $p10_main01_1 1))))
 (let (($x783 (= $p10_main01_1 $M.32_1)))
 (let (($x785 (= $M.32_1 $p8_main01_1)))
 (let (($x787 (= $p9_main01_1 $p8_main01_1)))
 (let (($x791 (= AH2_1 (uplus AH1_1 (pt l3_1 (Pt_R_1 3))))))
 (let (($x792 (= $p8_main01_1 l3_1)))
 (let (($x794 (= l4_1 (locadd l3_1 1))))
 (let ((?x800 (uplus H1_1 (uplus (pt l3_1 (Pt_R_1 d3_1)) (pt l4_1 (Pt_R_1 d4_1))))))
 (let (($x801 (= H2_1 ?x800)))
 (let (($x804 (and (and (and $x801 $x794) $x792) $x791)))
 (let (($x806 (= $i7_main01_1 8)))
 (let (($x808 (= $i6_main01_1 2)))
 (let (($x810 (= $i5_main01_1 2)))
 (let (($x812 (= $M.12_1 $p3_main01_1)))
 (let (($x814 (= $p4_main01_1 $p3_main01_1)))
 (let (($x818 (= AH1_1 (uplus AH_0 (pt l1_1 (Pt_R_1 2))))))
 (let (($x819 (= $p3_main01_1 l1_1)))
 (let (($x821 (= l2_1 (locadd l1_1 1))))
 (let ((?x827 (uplus H_0 (uplus (pt l1_1 (Pt_R_1 d1_1)) (pt l2_1 (Pt_R_1 d2_1))))))
 (let (($x828 (= H1_1 ?x827)))
 (let (($x831 (and (and (and $x828 $x821) $x819) $x818)))
 (let (($x833 (= $i2_main01_1 8)))
 (let (($x835 (= $i1_main01_1 2)))
 (let (($x837 (= $i0_main01_1 2)))
 (let (($x839 (= $M.02_1 2)))
 (let (($x841 (= $M.31_1 nil)))
 (let (($x2489 (and (and (and (and (= $M.01_1 0) (= $M.11_1 nil)) $x841) $x839) $x837)))
 (let (($x2495 (and (and (and (and (and (and $x2489 $x835) $x833) $x831) $x814) $x812) $x810)))
 (let (($x2501 (and (and (and (and (and (and $x2495 $x808) $x806) $x804) $x787) $x785) $x783)))
 (let (($x2507 (and (and (and (and (and (and $x2501 $x781) $x778) $x767) $x756) $x754) $x2250)))
 (let (($x704 (= loc_0 1)))
 (let (($x706 (and (and (= H_0 emp) (= AH_0 emp)) $x704)))
 (let (($x2525 (and (and $x706 (=> $x704 (and (and (and $x2507 $x979) $x1012) $x1015))) $x2524)))
 (and (and (and (and $x2525 $x2547) $x2583) (and $x2606 $x2612)) (and (and $x2198 $x2627) $x2634))))))))))))))))))))))))))))))))))))))))))))))))))))))))))))))))))))))))))))))))))))))))))))))))))))))))))))))))))))))))))))))))))))))))))))))))))))))))))))))))))))))))))))))))))))))))))))))))))))))))))))))))))))))))))))))))))))))))))))))))))))))))))))))))))))))))))))))))))))))))))))))))))))))))))))))))))))))))))))))))))))))))))))))))))))))))))))))))))))))))))))))))))))))))))))))))))))))))))))))))))))))))))))))))))))))))))))))))))))))))))))))))))))))))))))))
(check-sat)
